p cnf 386 460
-11 -15 20 21 22 0
-11 -15 20 21 -22 0
-11 -15 20 -21 23 0
-11 -15 20 -21 -23 0
17 13 -19 24 25 0
17 13 -19 24 -25 0
17 13 -19 -24 26 0
17 13 -19 -24 -26 0
-6 -13 16 27 28 0
-6 -13 16 27 -28 0
-6 -13 16 -27 29 0
-6 -13 16 -27 -29 0
15 -8 17 30 31 0
15 -8 17 30 -31 0
15 -8 17 -30 32 0
15 -8 17 -30 -32 0
19 -4 -16 33 34 0
19 -4 -16 33 -34 0
19 -4 -16 -33 35 0
19 -4 -16 -33 -35 0
-16 -14 10 36 37 0
-16 -14 10 36 -37 0
-16 -14 10 -36 38 0
-16 -14 10 -36 -38 0
-6 -12 -5 39 40 0
-6 -12 -5 39 -40 0
-6 -12 -5 -39 41 0
-6 -12 -5 -39 -41 0
20 -12 -16 42 43 0
20 -12 -16 42 -43 0
20 -12 -16 -42 44 0
20 -12 -16 -42 -44 0
14 15 -12 45 46 0
14 15 -12 45 -46 0
14 15 -12 -45 47 0
14 15 -12 -45 -47 0
-13 -19 -16 48 49 0
-13 -19 -16 48 -49 0
-13 -19 -16 -48 50 0
-13 -19 -16 -48 -50 0
-5 6 1 51 52 0
-5 6 1 51 -52 0
-5 6 1 -51 53 0
-5 6 1 -51 -53 0
-2 -16 11 54 55 0
-2 -16 11 54 -55 0
-2 -16 11 -54 56 0
-2 -16 11 -54 -56 0
-16 -7 -19 57 58 0
-16 -7 -19 57 -58 0
-16 -7 -19 -57 59 0
-16 -7 -19 -57 -59 0
-2 -6 -12 60 61 0
-2 -6 -12 60 -61 0
-2 -6 -12 -60 62 0
-2 -6 -12 -60 -62 0
-3 -8 14 63 64 0
-3 -8 14 63 -64 0
-3 -8 14 -63 65 0
-3 -8 14 -63 -65 0
10 4 -12 66 67 0
10 4 -12 66 -67 0
10 4 -12 -66 68 0
10 4 -12 -66 -68 0
17 -3 11 69 70 0
17 -3 11 69 -70 0
17 -3 11 -69 71 0
17 -3 11 -69 -71 0
13 14 12 72 73 0
13 14 12 72 -73 0
13 14 12 -72 74 0
13 14 12 -72 -74 0
8 11 -20 75 76 0
8 11 -20 75 -76 0
8 11 -20 -75 77 0
8 11 -20 -75 -77 0
4 -14 -7 78 79 0
4 -14 -7 78 -79 0
4 -14 -7 -78 80 0
4 -14 -7 -78 -80 0
11 -16 -4 81 82 0
11 -16 -4 81 -82 0
11 -16 -4 -81 83 0
11 -16 -4 -81 -83 0
17 -18 -10 84 85 0
17 -18 -10 84 -85 0
17 -18 -10 -84 86 0
17 -18 -10 -84 -86 0
17 -11 -8 87 88 0
17 -11 -8 87 -88 0
17 -11 -8 -87 89 0
17 -11 -8 -87 -89 0
16 3 4 90 91 0
16 3 4 90 -91 0
16 3 4 -90 92 0
16 3 4 -90 -92 0
-2 16 -8 93 94 0
-2 16 -8 93 -94 0
-2 16 -8 -93 95 0
-2 16 -8 -93 -95 0
9 11 -20 96 97 0
9 11 -20 96 -97 0
9 11 -20 -96 98 0
9 11 -20 -96 -98 0
-3 -19 -20 99 100 0
-3 -19 -20 99 -100 0
-3 -19 -20 -99 101 0
-3 -19 -20 -99 -101 0
9 -2 -4 102 103 0
9 -2 -4 102 -103 0
9 -2 -4 -102 104 0
9 -2 -4 -102 -104 0
-8 17 15 105 106 0
-8 17 15 105 -106 0
-8 17 15 -105 107 0
-8 17 15 -105 -107 0
17 -6 18 108 109 0
17 -6 18 108 -109 0
17 -6 18 -108 110 0
17 -6 18 -108 -110 0
4 -8 16 111 112 0
4 -8 16 111 -112 0
4 -8 16 -111 113 0
4 -8 16 -111 -113 0
-20 -15 -4 114 115 0
-20 -15 -4 114 -115 0
-20 -15 -4 -114 116 0
-20 -15 -4 -114 -116 0
-15 2 -19 117 118 0
-15 2 -19 117 -118 0
-15 2 -19 -117 119 0
-15 2 -19 -117 -119 0
-17 13 -10 120 121 0
-17 13 -10 120 -121 0
-17 13 -10 -120 122 0
-17 13 -10 -120 -122 0
-15 20 -1 123 124 0
-15 20 -1 123 -124 0
-15 20 -1 -123 125 0
-15 20 -1 -123 -125 0
-18 8 -7 126 127 0
-18 8 -7 126 -127 0
-18 8 -7 -126 128 0
-18 8 -7 -126 -128 0
18 10 14 129 130 0
18 10 14 129 -130 0
18 10 14 -129 131 0
18 10 14 -129 -131 0
-18 -3 -7 132 133 0
-18 -3 -7 132 -133 0
-18 -3 -7 -132 134 0
-18 -3 -7 -132 -134 0
-10 17 5 135 136 0
-10 17 5 135 -136 0
-10 17 5 -135 137 0
-10 17 5 -135 -137 0
-14 -3 -7 138 139 0
-14 -3 -7 138 -139 0
-14 -3 -7 -138 140 0
-14 -3 -7 -138 -140 0
-13 12 18 141 142 0
-13 12 18 141 -142 0
-13 12 18 -141 143 0
-13 12 18 -141 -143 0
-19 2 17 144 145 0
-19 2 17 144 -145 0
-19 2 17 -144 146 0
-19 2 17 -144 -146 0
17 -20 7 147 148 0
17 -20 7 147 -148 0
17 -20 7 -147 149 0
17 -20 7 -147 -149 0
17 5 -4 150 151 0
17 5 -4 150 -151 0
17 5 -4 -150 152 0
17 5 -4 -150 -152 0
-9 17 14 153 154 0
-9 17 14 153 -154 0
-9 17 14 -153 155 0
-9 17 14 -153 -155 0
7 3 19 156 157 0
7 3 19 156 -157 0
7 3 19 -156 158 0
7 3 19 -156 -158 0
13 -20 4 159 160 0
13 -20 4 159 -160 0
13 -20 4 -159 161 0
13 -20 4 -159 -161 0
14 -8 6 162 163 0
14 -8 6 162 -163 0
14 -8 6 -162 164 0
14 -8 6 -162 -164 0
7 8 6 165 166 0
7 8 6 165 -166 0
7 8 6 -165 167 0
7 8 6 -165 -167 0
-1 -17 -6 168 169 0
-1 -17 -6 168 -169 0
-1 -17 -6 -168 170 0
-1 -17 -6 -168 -170 0
-1 19 -18 171 172 0
-1 19 -18 171 -172 0
-1 19 -18 -171 173 0
-1 19 -18 -171 -173 0
3 16 19 174 175 0
3 16 19 174 -175 0
3 16 19 -174 176 0
3 16 19 -174 -176 0
-12 -18 17 177 178 0
-12 -18 17 177 -178 0
-12 -18 17 -177 179 0
-12 -18 17 -177 -179 0
18 -5 16 180 181 0
18 -5 16 180 -181 0
18 -5 16 -180 182 0
18 -5 16 -180 -182 0
-13 14 -1 183 184 0
-13 14 -1 183 -184 0
-13 14 -1 -183 185 0
-13 14 -1 -183 -185 0
-14 9 -13 186 187 0
-14 9 -13 186 -187 0
-14 9 -13 -186 188 0
-14 9 -13 -186 -188 0
12 -10 -11 189 190 0
12 -10 -11 189 -190 0
12 -10 -11 -189 191 0
12 -10 -11 -189 -191 0
-20 8 -13 192 193 0
-20 8 -13 192 -193 0
-20 8 -13 -192 194 0
-20 8 -13 -192 -194 0
-5 2 15 195 196 0
-5 2 15 195 -196 0
-5 2 15 -195 197 0
-5 2 15 -195 -197 0
4 -18 3 198 199 0
4 -18 3 198 -199 0
4 -18 3 -198 200 0
4 -18 3 -198 -200 0
-19 10 18 201 202 0
-19 10 18 201 -202 0
-19 10 18 -201 203 0
-19 10 18 -201 -203 0
-6 13 -16 204 205 0
-6 13 -16 204 -205 0
-6 13 -16 -204 206 0
-6 13 -16 -204 -206 0
11 -2 20 207 208 0
11 -2 20 207 -208 0
11 -2 20 -207 209 0
11 -2 20 -207 -209 0
14 2 -6 210 211 0
14 2 -6 210 -211 0
14 2 -6 -210 212 0
14 2 -6 -210 -212 0
-17 -6 9 213 214 0
-17 -6 9 213 -214 0
-17 -6 9 -213 215 0
-17 -6 9 -213 -215 0
-9 -14 -7 216 217 0
-9 -14 -7 216 -217 0
-9 -14 -7 -216 218 0
-9 -14 -7 -216 -218 0
5 -8 -1 219 220 0
5 -8 -1 219 -220 0
5 -8 -1 -219 221 0
5 -8 -1 -219 -221 0
12 18 15 222 223 0
12 18 15 222 -223 0
12 18 15 -222 224 0
12 18 15 -222 -224 0
-11 -7 -17 225 226 0
-11 -7 -17 225 -226 0
-11 -7 -17 -225 227 0
-11 -7 -17 -225 -227 0
18 6 -12 228 229 0
18 6 -12 228 -229 0
18 6 -12 -228 230 0
18 6 -12 -228 -230 0
-16 -3 -7 231 232 0
-16 -3 -7 231 -232 0
-16 -3 -7 -231 233 0
-16 -3 -7 -231 -233 0
-20 -5 6 234 235 0
-20 -5 6 234 -235 0
-20 -5 6 -234 236 0
-20 -5 6 -234 -236 0
12 -6 3 237 238 0
12 -6 3 237 -238 0
12 -6 3 -237 239 0
12 -6 3 -237 -239 0
14 -5 11 240 241 0
14 -5 11 240 -241 0
14 -5 11 -240 242 0
14 -5 11 -240 -242 0
-3 14 13 243 244 0
-3 14 13 243 -244 0
-3 14 13 -243 245 0
-3 14 13 -243 -245 0
-14 -17 5 246 247 0
-14 -17 5 246 -247 0
-14 -17 5 -246 248 0
-14 -17 5 -246 -248 0
18 -11 7 249 250 0
18 -11 7 249 -250 0
18 -11 7 -249 251 0
18 -11 7 -249 -251 0
8 2 7 252 253 0
8 2 7 252 -253 0
8 2 7 -252 254 0
8 2 7 -252 -254 0
14 -1 5 255 256 0
14 -1 5 255 -256 0
14 -1 5 -255 257 0
14 -1 5 -255 -257 0
11 13 -14 258 259 0
11 13 -14 258 -259 0
11 13 -14 -258 260 0
11 13 -14 -258 -260 0
5 -20 11 261 262 0
5 -20 11 261 -262 0
5 -20 11 -261 263 0
5 -20 11 -261 -263 0
-10 18 13 264 265 0
-10 18 13 264 -265 0
-10 18 13 -264 266 0
-10 18 13 -264 -266 0
17 -9 -5 267 268 0
17 -9 -5 267 -268 0
17 -9 -5 -267 269 0
17 -9 -5 -267 -269 0
3 -12 13 270 271 0
3 -12 13 270 -271 0
3 -12 13 -270 272 0
3 -12 13 -270 -272 0
8 5 15 273 274 0
8 5 15 273 -274 0
8 5 15 -273 275 0
8 5 15 -273 -275 0
15 13 1 276 277 0
15 13 1 276 -277 0
15 13 1 -276 278 0
15 13 1 -276 -278 0
-7 12 -19 279 280 0
-7 12 -19 279 -280 0
-7 12 -19 -279 281 0
-7 12 -19 -279 -281 0
2 4 8 282 283 0
2 4 8 282 -283 0
2 4 8 -282 284 0
2 4 8 -282 -284 0
-19 -10 -17 285 286 0
-19 -10 -17 285 -286 0
-19 -10 -17 -285 287 0
-19 -10 -17 -285 -287 0
15 4 16 288 289 0
15 4 16 288 -289 0
15 4 16 -288 290 0
15 4 16 -288 -290 0
-11 18 -17 291 292 0
-11 18 -17 291 -292 0
-11 18 -17 -291 293 0
-11 18 -17 -291 -293 0
294 295 297 301 309 0
294 295 297 301 -309 0
294 295 297 -301 310 0
294 295 297 -301 -310 0
294 295 -297 302 311 0
294 295 -297 302 -311 0
294 295 -297 -302 312 0
294 295 -297 -302 -312 0
294 -295 298 303 313 0
294 -295 298 303 -313 0
294 -295 298 -303 314 0
294 -295 298 -303 -314 0
294 -295 -298 304 315 0
294 -295 -298 304 -315 0
294 -295 -298 -304 316 0
294 -295 -298 -304 -316 0
-294 296 299 305 317 0
-294 296 299 305 -317 0
-294 296 299 -305 318 0
-294 296 299 -305 -318 0
-294 296 -299 306 319 0
-294 296 -299 306 -319 0
-294 296 -299 -306 320 0
-294 296 -299 -306 -320 0
-294 -296 300 307 321 0
-294 -296 300 307 -321 0
-294 -296 300 -307 322 0
-294 -296 300 -307 -322 0
-294 -296 -300 308 323 0
-294 -296 -300 308 -323 0
-294 -296 -300 -308 324 0
-294 -296 -300 -308 -324 0
325 326 328 332 340 0
325 326 328 332 -340 0
325 326 328 -332 341 0
325 326 328 -332 -341 0
325 326 -328 333 342 0
325 326 -328 333 -342 0
325 326 -328 -333 343 0
325 326 -328 -333 -343 0
325 -326 329 334 344 0
325 -326 329 334 -344 0
325 -326 329 -334 345 0
325 -326 329 -334 -345 0
325 -326 -329 335 346 0
325 -326 -329 335 -346 0
325 -326 -329 -335 347 0
325 -326 -329 -335 -347 0
-325 327 330 336 348 0
-325 327 330 336 -348 0
-325 327 330 -336 349 0
-325 327 330 -336 -349 0
-325 327 -330 337 350 0
-325 327 -330 337 -350 0
-325 327 -330 -337 351 0
-325 327 -330 -337 -351 0
-325 -327 331 338 352 0
-325 -327 331 338 -352 0
-325 -327 331 -338 353 0
-325 -327 331 -338 -353 0
-325 -327 -331 339 354 0
-325 -327 -331 339 -354 0
-325 -327 -331 -339 355 0
-325 -327 -331 -339 -355 0
356 357 359 363 371 0
356 357 359 363 -371 0
356 357 359 -363 372 0
356 357 359 -363 -372 0
356 357 -359 364 373 0
356 357 -359 364 -373 0
356 357 -359 -364 374 0
356 357 -359 -364 -374 0
356 -357 360 365 375 0
356 -357 360 365 -375 0
356 -357 360 -365 376 0
356 -357 360 -365 -376 0
356 -357 -360 366 377 0
356 -357 -360 366 -377 0
356 -357 -360 -366 378 0
356 -357 -360 -366 -378 0
-356 358 361 367 379 0
-356 358 361 367 -379 0
-356 358 361 -367 380 0
-356 358 361 -367 -380 0
-356 358 -361 368 381 0
-356 358 -361 368 -381 0
-356 358 -361 -368 382 0
-356 358 -361 -368 -382 0
-356 -358 362 369 383 0
-356 -358 362 369 -383 0
-356 -358 362 -369 384 0
-356 -358 362 -369 -384 0
-356 -358 -362 370 385 0
-356 -358 -362 370 -385 0
-356 -358 -362 -370 386 0
-356 -358 -362 -370 -386 0

